
******************************************************************************
This program contains Ipopt, a library for large-scale nonlinear optimization.
 Ipopt is released as open source code under the Eclipse Public License (EPL).
         For more information visit http://projects.coin-or.org/Ipopt

This version of Ipopt was compiled from source code available at
    https://github.com/IDAES/Ipopt as part of the Institute for the Design of
    Advanced Energy Systems Process Systems Engineering Framework (IDAES PSE
    Framework) Copyright (c) 2018-2019. See https://github.com/IDAES/idaes-pse.

This version of Ipopt was compiled using HSL, a collection of Fortran codes
    for large-scale scientific computation.  All technical papers, sales and
    publicity material resulting from use of the HSL codes within IPOPT must
    contain the following acknowledgement:
        HSL, a collection of Fortran codes for large-scale scientific
        computation. See http://www.hsl.rl.ac.uk.
******************************************************************************

This is Ipopt version 3.13.2, running with linear solver ma27.

Number of nonzeros in equality constraint Jacobian...:      928
Number of nonzeros in inequality constraint Jacobian.:        0
Number of nonzeros in Lagrangian Hessian.............:      806

Total number of variables............................:      403
                     variables with only lower bounds:      124
                variables with lower and upper bounds:      217
                     variables with only upper bounds:        0
Total number of equality constraints.................:      402
Total number of inequality constraints...............:        0
        inequality constraints with only lower bounds:        0
   inequality constraints with lower and upper bounds:        0
        inequality constraints with only upper bounds:        0

iter    objective    inf_pr   inf_du lg(mu)  ||d||  lg(rg) alpha_du alpha_pr  ls
   0  0.0000000e+00 1.17e+00 4.44e-16  -1.0 0.00e+00    -  0.00e+00 0.00e+00   0
   1  1.0430895e-01 1.06e+00 3.30e+03  -1.0 1.97e+05    -  4.58e-01 1.02e-01h  1
   2  1.2071563e-01 1.05e+00 3.41e+03  -1.0 2.27e+05    -  4.83e-01 8.56e-03h  1
   3  1.6939028e+01 3.34e-01 7.60e+04  -1.0 2.33e+05    -  4.96e-01 9.90e-01h  1
   4  2.1841729e+01 4.86e-02 4.32e+03  -1.0 3.41e+04    -  8.91e-01 9.90e-01h  1
   5  2.1980413e+01 1.61e-03 1.91e+02  -1.0 1.45e+03    -  9.89e-01 9.90e-01h  1
   6  2.2002952e+01 3.15e-05 1.64e+05  -1.0 3.30e+02    -  9.75e-01 9.90e-01h  1
   7  2.2017627e+01 4.54e-05 2.17e+08  -1.0 1.47e+04    -  2.09e-01 1.55e-02f  7
   8  2.2186429e+01 6.52e-05 2.19e+06  -1.0 2.65e+03    -  9.90e-01 9.90e-01H  1
   9  2.2356902e+01 3.37e-05 1.80e+08  -1.0 2.64e+03    -  9.92e-01 9.90e-01H  1
iter    objective    inf_pr   inf_du lg(mu)  ||d||  lg(rg) alpha_du alpha_pr  ls
  10  2.2308939e+01 1.76e-06 1.14e+11  -1.0 7.39e+02    -  1.00e+00 9.90e-01H  1
In iteration 10, 31 Slacks too small, adjusting variable bounds
  11  2.2302958e+01 8.83e-07 1.14e+13  -1.0 9.24e+01    -  1.00e+00 9.90e-01h  1
  12  2.2302820e+01 3.42e-10 1.19e-01  -1.0 2.11e+00    -  1.00e+00 1.00e+00h  1
  13  2.2297845e+01 6.26e-07 1.14e+13  -9.0 9.31e+03    -  9.83e-01 8.18e-03f  7
  14  2.2295396e+01 7.75e-07 1.15e+13  -9.0 6.08e+03    -  9.90e-01 6.16e-03f  8
  15  2.2294181e+01 8.10e-07 1.14e+13  -9.0 5.32e+03    -  9.95e-01 3.50e-03f  9
  16  2.2292971e+01 8.45e-07 1.14e+13  -9.0 5.05e+03    -  1.00e+00 3.67e-03f  9
  17  2.2291765e+01 8.79e-07 1.14e+13  -9.0 4.91e+03    -  1.00e+00 3.76e-03f  9
  18  2.1986756e+01 4.57e-03 2.74e+11  -9.0 4.82e+03    -  1.00e+00 9.76e-01f  1
  19  2.1981677e+01 4.66e-06 3.31e-02  -9.0 7.07e+01    -  1.00e+00 1.00e+00h  1
iter    objective    inf_pr   inf_du lg(mu)  ||d||  lg(rg) alpha_du alpha_pr  ls
  20  2.1981677e+01 3.74e-11 2.89e-07  -9.0 3.30e-03    -  1.00e+00 1.00e+00h  1

Number of Iterations....: 20

                                   (scaled)                 (unscaled)
Objective...............:   2.1981676643667981e+01    2.1981676643667981e+01
Dual infeasibility......:   2.8914417961687956e-07    2.8914417961687956e-07
Constraint violation....:   3.7424063847879552e-11    3.7424063847879552e-11
Complementarity.........:   4.0917304724804823e-09    4.0917304724804823e-09
Overall NLP error.......:   4.2710671341340891e-09    2.8914417961687956e-07


Number of objective function evaluations             = 89
Number of objective gradient evaluations             = 21
Number of equality constraint evaluations            = 89
Number of inequality constraint evaluations          = 0
Number of equality constraint Jacobian evaluations   = 21
Number of inequality constraint Jacobian evaluations = 0
Number of Lagrangian Hessian evaluations             = 20
Total CPU secs in IPOPT (w/o function evaluations)   =      0.030
Total CPU secs in NLP function evaluations           =      0.610

EXIT: Optimal Solution Found.
